44 57 93 55 38 41 50 63 3 24 22 98 26 60 95 83 21 20 28 56 88 33 65 43 15 37 82 86 71 73 61 53 51 75 13 72 8 31 84 11 14 23 40 47 1 27 4 19 91 54 12 85 5 96 92 87 2 62 25 52 77 35 6 9 58 29 74 39 99 42 49 48 16 69 78 76 79 90 81 97 66 18 7 89 34 64 46 30 10 45 80 0 70 68 36 32 59 94 17 67 

